c Clique máximo encontrado = 8
p edge 134 27
e 70 4
e 70 10
e 70 14
e 70 41
e 70 50
e 70 69
e 70 134
e 4 10
e 4 14
e 4 41
e 4 50
e 4 69
e 4 134
e 10 14
e 10 41
e 10 50
e 10 69
e 10 134
e 14 41
e 14 50
e 14 69
e 14 134
e 41 50
e 41 69
e 41 134
e 50 69
e 50 134
e 69 134
